nNurses = 194;
nHours = 27;
minHours = 3;
maxHours = 12;
maxConsec = 11;
maxPresence = 24;
demand = [25, 21, 24, 25, 24, 24, 28, 29, 25, 28, 25, 21, 20, 21, 16, 15, 19, 18, 20, 25, 20, 22, 27, 29, 33, 33, 37];
